NAME : block_15.661256.tour
COMMENT : Length = 661256
COMMENT : Found by LKH-3 [Keld Helsgaun] Wed Apr 22 15:45:31 2026
TYPE : TOUR
DIMENSION : 191
TOUR_SECTION
48
39
30
22
15
8
3
4
9
16
23
31
40
41
32
24
17
10
5
11
18
25
33
42
51
50
60
69
78
68
77
86
96
106
107
97
87
2
191
1
88
98
108
117
126
135
144
153
161
169
177
185
178
170
162
154
145
136
127
118
109
99
89
79
70
61
52
53
62
71
80
90
100
110
119
128
137
146
155
163
171
179
186
187
180
172
164
156
147
138
129
120
111
101
91
81
72
63
54
44
43
34
35
26
27
36
45
55
64
73
82
92
102
112
121
130
139
148
157
165
173
181
188
189
182
174
166
158
149
140
131
122
113
103
93
83
74
65
56
46
37
28
20
19
12
13
6
7
14
21
29
38
47
57
66
75
84
94
104
114
123
132
141
150
159
167
175
183
190
184
176
168
160
151
152
143
142
133
124
134
125
116
115
105
95
85
76
67
58
59
49
-1
EOF
